3 
4  55 
5  08 32 48 
6  03 17 32 49 
7  04 19 34 49 
8  04 19 34 49 
9  04 19 34 51 
10  06 21 36 51 
11  06 21 36 51 
12  06 21 36 51 
13  06 21 36 51 
14  06 21 36 50 
15  04 19 34 49 
16  04 19 34 49 
17  04 19 34 49 
18  04 19 34 50 
19  05 20 35 50 
20  05 20 35 50 
21  05 20 50 
22  
23  
0 
